p tw 37 88
0 1
0 2
0 3
0 6
0 13
0 20
0 8
0 21
0 16
0 25
0 26
0 7
0 15
0 29
0 4
0 18
0 30
0 31
0 32
0 35
0 28
0 36
0 34
0 14
0 24
0 27
0 9
0 12
1 10
1 11
2 22
2 23
3 4
3 5
3 27
3 14
3 10
3 11
3 32
3 35
4 5
5 27
5 14
5 32
5 35
6 12
6 24
6 26
6 29
7 8
7 9
7 20
8 9
8 20
8 22
8 23
10 11
10 12
10 19
10 22
10 36
11 12
11 19
11 22
11 36
12 24
12 26
12 21
12 25
12 29
13 22
13 23
13 33
13 34
14 15
14 16
15 16
17 18
17 19
18 19
21 25
22 23
22 28
23 28
24 30
24 31
30 31
33 34
